p cnf 386 460
-8 14 -2 21 22 0
-8 14 -2 21 -22 0
-8 14 -2 -21 23 0
-8 14 -2 -21 -23 0
16 -7 18 24 25 0
16 -7 18 24 -25 0
16 -7 18 -24 26 0
16 -7 18 -24 -26 0
8 -4 -18 27 28 0
8 -4 -18 27 -28 0
8 -4 -18 -27 29 0
8 -4 -18 -27 -29 0
6 9 -4 30 31 0
6 9 -4 30 -31 0
6 9 -4 -30 32 0
6 9 -4 -30 -32 0
-4 7 19 33 34 0
-4 7 19 33 -34 0
-4 7 19 -33 35 0
-4 7 19 -33 -35 0
3 11 -14 36 37 0
3 11 -14 36 -37 0
3 11 -14 -36 38 0
3 11 -14 -36 -38 0
-20 1 -2 39 40 0
-20 1 -2 39 -40 0
-20 1 -2 -39 41 0
-20 1 -2 -39 -41 0
-20 -9 -18 42 43 0
-20 -9 -18 42 -43 0
-20 -9 -18 -42 44 0
-20 -9 -18 -42 -44 0
-15 2 20 45 46 0
-15 2 20 45 -46 0
-15 2 20 -45 47 0
-15 2 20 -45 -47 0
11 10 -16 48 49 0
11 10 -16 48 -49 0
11 10 -16 -48 50 0
11 10 -16 -48 -50 0
-10 -9 -4 51 52 0
-10 -9 -4 51 -52 0
-10 -9 -4 -51 53 0
-10 -9 -4 -51 -53 0
13 -14 -20 54 55 0
13 -14 -20 54 -55 0
13 -14 -20 -54 56 0
13 -14 -20 -54 -56 0
9 -3 11 57 58 0
9 -3 11 57 -58 0
9 -3 11 -57 59 0
9 -3 11 -57 -59 0
1 20 19 60 61 0
1 20 19 60 -61 0
1 20 19 -60 62 0
1 20 19 -60 -62 0
15 6 18 63 64 0
15 6 18 63 -64 0
15 6 18 -63 65 0
15 6 18 -63 -65 0
10 13 -3 66 67 0
10 13 -3 66 -67 0
10 13 -3 -66 68 0
10 13 -3 -66 -68 0
-19 -7 -5 69 70 0
-19 -7 -5 69 -70 0
-19 -7 -5 -69 71 0
-19 -7 -5 -69 -71 0
-16 -10 -19 72 73 0
-16 -10 -19 72 -73 0
-16 -10 -19 -72 74 0
-16 -10 -19 -72 -74 0
-14 12 17 75 76 0
-14 12 17 75 -76 0
-14 12 17 -75 77 0
-14 12 17 -75 -77 0
-13 6 3 78 79 0
-13 6 3 78 -79 0
-13 6 3 -78 80 0
-13 6 3 -78 -80 0
3 2 20 81 82 0
3 2 20 81 -82 0
3 2 20 -81 83 0
3 2 20 -81 -83 0
20 -5 -14 84 85 0
20 -5 -14 84 -85 0
20 -5 -14 -84 86 0
20 -5 -14 -84 -86 0
-18 13 -4 87 88 0
-18 13 -4 87 -88 0
-18 13 -4 -87 89 0
-18 13 -4 -87 -89 0
-14 -20 6 90 91 0
-14 -20 6 90 -91 0
-14 -20 6 -90 92 0
-14 -20 6 -90 -92 0
-17 11 12 93 94 0
-17 11 12 93 -94 0
-17 11 12 -93 95 0
-17 11 12 -93 -95 0
9 -7 2 96 97 0
9 -7 2 96 -97 0
9 -7 2 -96 98 0
9 -7 2 -96 -98 0
16 -11 13 99 100 0
16 -11 13 99 -100 0
16 -11 13 -99 101 0
16 -11 13 -99 -101 0
3 12 -6 102 103 0
3 12 -6 102 -103 0
3 12 -6 -102 104 0
3 12 -6 -102 -104 0
-2 10 -5 105 106 0
-2 10 -5 105 -106 0
-2 10 -5 -105 107 0
-2 10 -5 -105 -107 0
8 19 2 108 109 0
8 19 2 108 -109 0
8 19 2 -108 110 0
8 19 2 -108 -110 0
16 -9 -4 111 112 0
16 -9 -4 111 -112 0
16 -9 -4 -111 113 0
16 -9 -4 -111 -113 0
19 10 -4 114 115 0
19 10 -4 114 -115 0
19 10 -4 -114 116 0
19 10 -4 -114 -116 0
-10 17 16 117 118 0
-10 17 16 117 -118 0
-10 17 16 -117 119 0
-10 17 16 -117 -119 0
-15 5 -20 120 121 0
-15 5 -20 120 -121 0
-15 5 -20 -120 122 0
-15 5 -20 -120 -122 0
-5 20 -13 123 124 0
-5 20 -13 123 -124 0
-5 20 -13 -123 125 0
-5 20 -13 -123 -125 0
7 10 18 126 127 0
7 10 18 126 -127 0
7 10 18 -126 128 0
7 10 18 -126 -128 0
-9 19 13 129 130 0
-9 19 13 129 -130 0
-9 19 13 -129 131 0
-9 19 13 -129 -131 0
6 20 2 132 133 0
6 20 2 132 -133 0
6 20 2 -132 134 0
6 20 2 -132 -134 0
-16 8 1 135 136 0
-16 8 1 135 -136 0
-16 8 1 -135 137 0
-16 8 1 -135 -137 0
-6 -9 2 138 139 0
-6 -9 2 138 -139 0
-6 -9 2 -138 140 0
-6 -9 2 -138 -140 0
12 -6 13 141 142 0
12 -6 13 141 -142 0
12 -6 13 -141 143 0
12 -6 13 -141 -143 0
18 -5 1 144 145 0
18 -5 1 144 -145 0
18 -5 1 -144 146 0
18 -5 1 -144 -146 0
-15 6 3 147 148 0
-15 6 3 147 -148 0
-15 6 3 -147 149 0
-15 6 3 -147 -149 0
3 -2 -14 150 151 0
3 -2 -14 150 -151 0
3 -2 -14 -150 152 0
3 -2 -14 -150 -152 0
6 3 5 153 154 0
6 3 5 153 -154 0
6 3 5 -153 155 0
6 3 5 -153 -155 0
11 12 10 156 157 0
11 12 10 156 -157 0
11 12 10 -156 158 0
11 12 10 -156 -158 0
6 19 10 159 160 0
6 19 10 159 -160 0
6 19 10 -159 161 0
6 19 10 -159 -161 0
-10 -3 15 162 163 0
-10 -3 15 162 -163 0
-10 -3 15 -162 164 0
-10 -3 15 -162 -164 0
-18 2 -3 165 166 0
-18 2 -3 165 -166 0
-18 2 -3 -165 167 0
-18 2 -3 -165 -167 0
-8 -11 2 168 169 0
-8 -11 2 168 -169 0
-8 -11 2 -168 170 0
-8 -11 2 -168 -170 0
17 -9 -14 171 172 0
17 -9 -14 171 -172 0
17 -9 -14 -171 173 0
17 -9 -14 -171 -173 0
12 18 -13 174 175 0
12 18 -13 174 -175 0
12 18 -13 -174 176 0
12 18 -13 -174 -176 0
11 12 3 177 178 0
11 12 3 177 -178 0
11 12 3 -177 179 0
11 12 3 -177 -179 0
6 -2 4 180 181 0
6 -2 4 180 -181 0
6 -2 4 -180 182 0
6 -2 4 -180 -182 0
7 -1 -19 183 184 0
7 -1 -19 183 -184 0
7 -1 -19 -183 185 0
7 -1 -19 -183 -185 0
10 -9 -5 186 187 0
10 -9 -5 186 -187 0
10 -9 -5 -186 188 0
10 -9 -5 -186 -188 0
17 6 -14 189 190 0
17 6 -14 189 -190 0
17 6 -14 -189 191 0
17 6 -14 -189 -191 0
9 -17 -11 192 193 0
9 -17 -11 192 -193 0
9 -17 -11 -192 194 0
9 -17 -11 -192 -194 0
-8 15 16 195 196 0
-8 15 16 195 -196 0
-8 15 16 -195 197 0
-8 15 16 -195 -197 0
-3 -7 -10 198 199 0
-3 -7 -10 198 -199 0
-3 -7 -10 -198 200 0
-3 -7 -10 -198 -200 0
8 5 -2 201 202 0
8 5 -2 201 -202 0
8 5 -2 -201 203 0
8 5 -2 -201 -203 0
-9 -15 -6 204 205 0
-9 -15 -6 204 -205 0
-9 -15 -6 -204 206 0
-9 -15 -6 -204 -206 0
-12 -20 -6 207 208 0
-12 -20 -6 207 -208 0
-12 -20 -6 -207 209 0
-12 -20 -6 -207 -209 0
-2 -7 -13 210 211 0
-2 -7 -13 210 -211 0
-2 -7 -13 -210 212 0
-2 -7 -13 -210 -212 0
-19 -20 9 213 214 0
-19 -20 9 213 -214 0
-19 -20 9 -213 215 0
-19 -20 9 -213 -215 0
7 3 9 216 217 0
7 3 9 216 -217 0
7 3 9 -216 218 0
7 3 9 -216 -218 0
-17 -19 12 219 220 0
-17 -19 12 219 -220 0
-17 -19 12 -219 221 0
-17 -19 12 -219 -221 0
-4 11 12 222 223 0
-4 11 12 222 -223 0
-4 11 12 -222 224 0
-4 11 12 -222 -224 0
-19 10 -2 225 226 0
-19 10 -2 225 -226 0
-19 10 -2 -225 227 0
-19 10 -2 -225 -227 0
14 3 -17 228 229 0
14 3 -17 228 -229 0
14 3 -17 -228 230 0
14 3 -17 -228 -230 0
-10 -8 18 231 232 0
-10 -8 18 231 -232 0
-10 -8 18 -231 233 0
-10 -8 18 -231 -233 0
-4 14 -1 234 235 0
-4 14 -1 234 -235 0
-4 14 -1 -234 236 0
-4 14 -1 -234 -236 0
1 9 12 237 238 0
1 9 12 237 -238 0
1 9 12 -237 239 0
1 9 12 -237 -239 0
-4 -13 -2 240 241 0
-4 -13 -2 240 -241 0
-4 -13 -2 -240 242 0
-4 -13 -2 -240 -242 0
-12 -18 -17 243 244 0
-12 -18 -17 243 -244 0
-12 -18 -17 -243 245 0
-12 -18 -17 -243 -245 0
4 7 -10 246 247 0
4 7 -10 246 -247 0
4 7 -10 -246 248 0
4 7 -10 -246 -248 0
-5 17 12 249 250 0
-5 17 12 249 -250 0
-5 17 12 -249 251 0
-5 17 12 -249 -251 0
-20 -10 4 252 253 0
-20 -10 4 252 -253 0
-20 -10 4 -252 254 0
-20 -10 4 -252 -254 0
-13 -19 -20 255 256 0
-13 -19 -20 255 -256 0
-13 -19 -20 -255 257 0
-13 -19 -20 -255 -257 0
14 9 -13 258 259 0
14 9 -13 258 -259 0
14 9 -13 -258 260 0
14 9 -13 -258 -260 0
-1 6 18 261 262 0
-1 6 18 261 -262 0
-1 6 18 -261 263 0
-1 6 18 -261 -263 0
-2 11 -18 264 265 0
-2 11 -18 264 -265 0
-2 11 -18 -264 266 0
-2 11 -18 -264 -266 0
-16 10 9 267 268 0
-16 10 9 267 -268 0
-16 10 9 -267 269 0
-16 10 9 -267 -269 0
7 14 -3 270 271 0
7 14 -3 270 -271 0
7 14 -3 -270 272 0
7 14 -3 -270 -272 0
-1 7 14 273 274 0
-1 7 14 273 -274 0
-1 7 14 -273 275 0
-1 7 14 -273 -275 0
12 15 4 276 277 0
12 15 4 276 -277 0
12 15 4 -276 278 0
12 15 4 -276 -278 0
-4 12 2 279 280 0
-4 12 2 279 -280 0
-4 12 2 -279 281 0
-4 12 2 -279 -281 0
-13 -11 -10 282 283 0
-13 -11 -10 282 -283 0
-13 -11 -10 -282 284 0
-13 -11 -10 -282 -284 0
18 -7 -16 285 286 0
18 -7 -16 285 -286 0
18 -7 -16 -285 287 0
18 -7 -16 -285 -287 0
-5 15 -2 288 289 0
-5 15 -2 288 -289 0
-5 15 -2 -288 290 0
-5 15 -2 -288 -290 0
4 -17 5 291 292 0
4 -17 5 291 -292 0
4 -17 5 -291 293 0
4 -17 5 -291 -293 0
294 295 297 301 309 0
294 295 297 301 -309 0
294 295 297 -301 310 0
294 295 297 -301 -310 0
294 295 -297 302 311 0
294 295 -297 302 -311 0
294 295 -297 -302 312 0
294 295 -297 -302 -312 0
294 -295 298 303 313 0
294 -295 298 303 -313 0
294 -295 298 -303 314 0
294 -295 298 -303 -314 0
294 -295 -298 304 315 0
294 -295 -298 304 -315 0
294 -295 -298 -304 316 0
294 -295 -298 -304 -316 0
-294 296 299 305 317 0
-294 296 299 305 -317 0
-294 296 299 -305 318 0
-294 296 299 -305 -318 0
-294 296 -299 306 319 0
-294 296 -299 306 -319 0
-294 296 -299 -306 320 0
-294 296 -299 -306 -320 0
-294 -296 300 307 321 0
-294 -296 300 307 -321 0
-294 -296 300 -307 322 0
-294 -296 300 -307 -322 0
-294 -296 -300 308 323 0
-294 -296 -300 308 -323 0
-294 -296 -300 -308 324 0
-294 -296 -300 -308 -324 0
325 326 328 332 340 0
325 326 328 332 -340 0
325 326 328 -332 341 0
325 326 328 -332 -341 0
325 326 -328 333 342 0
325 326 -328 333 -342 0
325 326 -328 -333 343 0
325 326 -328 -333 -343 0
325 -326 329 334 344 0
325 -326 329 334 -344 0
325 -326 329 -334 345 0
325 -326 329 -334 -345 0
325 -326 -329 335 346 0
325 -326 -329 335 -346 0
325 -326 -329 -335 347 0
325 -326 -329 -335 -347 0
-325 327 330 336 348 0
-325 327 330 336 -348 0
-325 327 330 -336 349 0
-325 327 330 -336 -349 0
-325 327 -330 337 350 0
-325 327 -330 337 -350 0
-325 327 -330 -337 351 0
-325 327 -330 -337 -351 0
-325 -327 331 338 352 0
-325 -327 331 338 -352 0
-325 -327 331 -338 353 0
-325 -327 331 -338 -353 0
-325 -327 -331 339 354 0
-325 -327 -331 339 -354 0
-325 -327 -331 -339 355 0
-325 -327 -331 -339 -355 0
356 357 359 363 371 0
356 357 359 363 -371 0
356 357 359 -363 372 0
356 357 359 -363 -372 0
356 357 -359 364 373 0
356 357 -359 364 -373 0
356 357 -359 -364 374 0
356 357 -359 -364 -374 0
356 -357 360 365 375 0
356 -357 360 365 -375 0
356 -357 360 -365 376 0
356 -357 360 -365 -376 0
356 -357 -360 366 377 0
356 -357 -360 366 -377 0
356 -357 -360 -366 378 0
356 -357 -360 -366 -378 0
-356 358 361 367 379 0
-356 358 361 367 -379 0
-356 358 361 -367 380 0
-356 358 361 -367 -380 0
-356 358 -361 368 381 0
-356 358 -361 368 -381 0
-356 358 -361 -368 382 0
-356 358 -361 -368 -382 0
-356 -358 362 369 383 0
-356 -358 362 369 -383 0
-356 -358 362 -369 384 0
-356 -358 362 -369 -384 0
-356 -358 -362 370 385 0
-356 -358 -362 370 -385 0
-356 -358 -362 -370 386 0
-356 -358 -362 -370 -386 0

